\* NFL *\
Maximize
OBJ: 26.25 29436419 + 26.4 29436420 + 25.65 29436421 + 28.2 29436422
 + 27.9 29436423 + 16.35 29436424 + 15.9 29436425 + 11.55 29436426
 + 12.45 29436431 + 10.8 29436432 + 10.65 29436433 + 11.1 29436434
 + 6.15 29436435 + 9.75 29436436 + 12 29436437 + 11.1 29436438 + 8.7 29436439
 + 5.55 29436440 + 4.5 29436441 + 5.7 29436442 + 4.8 29436443 + 3.3 29436444
 + 4.2 29436446 + 17.5 29436470 + 17.6 29436471 + 17.1 29436472
 + 18.8 29436473 + 18.6 29436474 + 10.9 29436475 + 10.6 29436476
 + 7.7 29436477 + 8.3 29436482 + 7.2 29436483 + 7.1 29436484 + 7.4 29436485
 + 4.1 29436486 + 6.5 29436487 + 8 29436488 + 7.4 29436489 + 5.8 29436490
 + 3.7 29436491 + 3 29436492 + 3.8 29436493 + 3.2 29436494 + 2.2 29436495
 + 2.8 29436497
Subject To
CPT_==_1: 29436419 + 29436420 + 29436421 + 29436422 + 29436423 + 29436424
 + 29436425 + 29436426 + 29436431 + 29436432 + 29436433 + 29436434 + 29436435
 + 29436436 + 29436437 + 29436438 + 29436439 + 29436440 + 29436441 + 29436442
 + 29436443 + 29436444 + 29436446 = 1
FLEX_==_5: 29436470 + 29436471 + 29436472 + 29436473 + 29436474 + 29436475
 + 29436476 + 29436477 + 29436482 + 29436483 + 29436484 + 29436485 + 29436486
 + 29436487 + 29436488 + 29436489 + 29436490 + 29436491 + 29436492 + 29436493
 + 29436494 + 29436495 + 29436497 = 5
Global_team_limit_DAL_4: 29436419 + 29436421 + 29436422 + 29436425 + 29436431
 + 29436433 + 29436434 + 29436437 + 29436440 + 29436442 + 29436444 + 29436446
 + 29436470 + 29436472 + 29436473 + 29436476 + 29436482 + 29436484 + 29436485
 + 29436488 + 29436491 + 29436493 + 29436495 + 29436497 <= 4
Global_team_limit_NYG_4: 29436420 + 29436423 + 29436424 + 29436426 + 29436432
 + 29436435 + 29436436 + 29436438 + 29436439 + 29436441 + 29436443 + 29436471
 + 29436474 + 29436475 + 29436477 + 29436483 + 29436486 + 29436487 + 29436489
 + 29436490 + 29436492 + 29436494 <= 4
Lineup_0: 29436423 + 29436471 + 29436472 + 29436473 + 29436488 + 29436497 <= 1
Lineup_1: 29436422 + 29436470 + 29436471 + 29436474 + 29436493 + 29436494 <= 1
Lineup_2: 29436420 + 29436473 + 29436474 + 29436476 + 29436489 + 29436490 <= 1
Lineup_3: 29436423 + 29436470 + 29436475 + 29436476 + 29436485 + 29436487 <= 1
Lineup_4: 29436419 + 29436472 + 29436474 + 29436482 + 29436485 + 29436492 <= 1
Lineup_5: 29436421 + 29436470 + 29436473 + 29436483 + 29436484 + 29436492 <= 1
Lineup_6: 29436422 + 29436472 + 29436475 + 29436477 + 29436483 + 29436489 <= 1
Lineup_7: 29436421 + 29436471 + 29436476 + 29436477 + 29436482 + 29436491 <= 1
Lineup_8: 29436419 + 29436471 + 29436475 + 29436484 + 29436486 + 29436490 <= 1
Max_5_players_from_one_team_DAL: 29436419 + 29436421 + 29436422 + 29436425
 + 29436431 + 29436433 + 29436434 + 29436437 + 29436440 + 29436442 + 29436444
 + 29436446 + 29436470 + 29436472 + 29436473 + 29436476 + 29436482 + 29436484
 + 29436485 + 29436488 + 29436491 + 29436493 + 29436495 + 29436497 <= 5
Max_5_players_from_one_team_NYG: 29436420 + 29436423 + 29436424 + 29436426
 + 29436432 + 29436435 + 29436436 + 29436438 + 29436439 + 29436441 + 29436443
 + 29436471 + 29436474 + 29436475 + 29436477 + 29436483 + 29436486 + 29436487
 + 29436489 + 29436490 + 29436492 + 29436494 <= 5
Max_Salary: 16500 29436419 + 15900 29436420 + 15600 29436421 + 15000 29436422
 + 14100 29436423 + 12600 29436424 + 10800 29436425 + 9600 29436426
 + 8700 29436431 + 8100 29436432 + 7800 29436433 + 7200 29436434
 + 6900 29436435 + 6600 29436436 + 6300 29436437 + 6000 29436438
 + 5100 29436439 + 4500 29436440 + 3600 29436441 + 2700 29436442
 + 2400 29436443 + 1500 29436444 + 900 29436446 + 11000 29436470
 + 10600 29436471 + 10400 29436472 + 10000 29436473 + 9400 29436474
 + 8400 29436475 + 7200 29436476 + 6400 29436477 + 5800 29436482
 + 5400 29436483 + 5200 29436484 + 4800 29436485 + 4600 29436486
 + 4400 29436487 + 4200 29436488 + 4000 29436489 + 3400 29436490
 + 3000 29436491 + 2400 29436492 + 1800 29436493 + 1600 29436494
 + 1000 29436495 + 600 29436497 <= 50000
Min_Salary: 16500 29436419 + 15900 29436420 + 15600 29436421 + 15000 29436422
 + 14100 29436423 + 12600 29436424 + 10800 29436425 + 9600 29436426
 + 8700 29436431 + 8100 29436432 + 7800 29436433 + 7200 29436434
 + 6900 29436435 + 6600 29436436 + 6300 29436437 + 6000 29436438
 + 5100 29436439 + 4500 29436440 + 3600 29436441 + 2700 29436442
 + 2400 29436443 + 1500 29436444 + 900 29436446 + 11000 29436470
 + 10600 29436471 + 10400 29436472 + 10000 29436473 + 9400 29436474
 + 8400 29436475 + 7200 29436476 + 6400 29436477 + 5800 29436482
 + 5400 29436483 + 5200 29436484 + 4800 29436485 + 4600 29436486
 + 4400 29436487 + 4200 29436488 + 4000 29436489 + 3400 29436490
 + 3000 29436491 + 2400 29436492 + 1800 29436493 + 1600 29436494
 + 1000 29436495 + 600 29436497 >= 45000
No_player_in_both_CPT_and_FLEX__('brandin_cooks',_'FLEX',_'DAL'),_('brandin_cooks',_'CPT',_'DAL')_:
 29436425 + 29436476 <= 1
No_player_in_both_CPT_and_FLEX__('brandon_aubrey',_'FLEX',_'DAL'),_('brandon_aubrey',_'CPT',_'DAL')_:
 29436437 + 29436488 <= 1
No_player_in_both_CPT_and_FLEX__('ceedee_lamb',_'FLEX',_'DAL'),_('ceedee_lamb',_'CPT',_'DAL')_:
 29436421 + 29436472 <= 1
No_player_in_both_CPT_and_FLEX__('cowboys',_'FLEX',_'DAL'),_('cowboys',_'CPT',_'DAL')_:
 29436433 + 29436484 <= 1
No_player_in_both_CPT_and_FLEX__('dak_prescott',_'FLEX',_'DAL'),_('dak_prescott',_'CPT',_'DAL')_:
 29436422 + 29436473 <= 1
No_player_in_both_CPT_and_FLEX__('daniel_jones',_'FLEX',_'NYG'),_('daniel_jones',_'CPT',_'NYG')_:
 29436423 + 29436474 <= 1
No_player_in_both_CPT_and_FLEX__('darius_slayton',_'FLEX',_'NYG'),_('darius_slayton',_'CPT',_'NYG')_:
 29436432 + 29436483 <= 1
No_player_in_both_CPT_and_FLEX__('darren_waller',_'FLEX',_'NYG'),_('darren_waller',_'CPT',_'NYG')_:
 29436424 + 29436475 <= 1
No_player_in_both_CPT_and_FLEX__('deuce_vaughn',_'FLEX',_'DAL'),_('deuce_vaughn',_'CPT',_'DAL')_:
 29436440 + 29436491 <= 1
No_player_in_both_CPT_and_FLEX__('giants',_'FLEX',_'NYG'),_('giants',_'CPT',_'NYG')_:
 29436439 + 29436490 <= 1
No_player_in_both_CPT_and_FLEX__('graham_gano',_'FLEX',_'NYG'),_('graham_gano',_'CPT',_'NYG')_:
 29436438 + 29436489 <= 1
No_player_in_both_CPT_and_FLEX__('isaiah_hodgins',_'FLEX',_'NYG'),_('isaiah_hodgins',_'CPT',_'NYG')_:
 29436426 + 29436477 <= 1
No_player_in_both_CPT_and_FLEX__('jake_ferguson',_'FLEX',_'DAL'),_('jake_ferguson',_'CPT',_'DAL')_:
 29436434 + 29436485 <= 1
No_player_in_both_CPT_and_FLEX__('jalen_tolbert',_'FLEX',_'DAL'),_('jalen_tolbert',_'CPT',_'DAL')_:
 29436444 + 29436495 <= 1
No_player_in_both_CPT_and_FLEX__('jalin_hyatt',_'FLEX',_'NYG'),_('jalin_hyatt',_'CPT',_'NYG')_:
 29436435 + 29436486 <= 1
No_player_in_both_CPT_and_FLEX__('luke_schoonmaker',_'FLEX',_'DAL'),_('luke_schoonmaker',_'CPT',_'DAL')_:
 29436446 + 29436497 <= 1
No_player_in_both_CPT_and_FLEX__('matt_breida',_'FLEX',_'NYG'),_('matt_breida',_'CPT',_'NYG')_:
 29436443 + 29436494 <= 1
No_player_in_both_CPT_and_FLEX__('michael_gallup',_'FLEX',_'DAL'),_('michael_gallup',_'CPT',_'DAL')_:
 29436431 + 29436482 <= 1
No_player_in_both_CPT_and_FLEX__('parris_campbell',_'FLEX',_'NYG'),_('parris_campbell',_'CPT',_'NYG')_:
 29436436 + 29436487 <= 1
No_player_in_both_CPT_and_FLEX__('rico_dowdle',_'FLEX',_'DAL'),_('rico_dowdle',_'CPT',_'DAL')_:
 29436442 + 29436493 <= 1
No_player_in_both_CPT_and_FLEX__('saquon_barkley',_'FLEX',_'NYG'),_('saquon_barkley',_'CPT',_'NYG')_:
 29436420 + 29436471 <= 1
No_player_in_both_CPT_and_FLEX__('sterling_shepard',_'FLEX',_'NYG'),_('sterling_shepard',_'CPT',_'NYG')_:
 29436441 + 29436492 <= 1
No_player_in_both_CPT_and_FLEX__('tony_pollard',_'FLEX',_'DAL'),_('tony_pollard',_'CPT',_'DAL')_:
 29436419 + 29436470 <= 1
Binaries
29436419
29436420
29436421
29436422
29436423
29436424
29436425
29436426
29436431
29436432
29436433
29436434
29436435
29436436
29436437
29436438
29436439
29436440
29436441
29436442
29436443
29436444
29436446
29436470
29436471
29436472
29436473
29436474
29436475
29436476
29436477
29436482
29436483
29436484
29436485
29436486
29436487
29436488
29436489
29436490
29436491
29436492
29436493
29436494
29436495
29436497
End
